Sun 20 May 09:01:17 CEST 2018
CPXPARAM_TimeLimit                               45
CPXPARAM_Threads                                 4
CPXPARAM_MIP_Strategy_CallbackReducedLP          0
Tried aggregator 3 times.
MIP Presolve eliminated 867 rows and 705 columns.
MIP Presolve modified 621 coefficients.
Aggregator did 1087 substitutions.
Reduced MIP has 2078 rows, 1896 columns, and 5120 nonzeros.
Reduced MIP has 1649 binaries, 7 generals, 0 SOSs, and 339 indicators.
Presolve time = 0.02 sec. (15.16 ticks)
Found incumbent of value 12.000000 after 0.03 sec. (27.12 ticks)
Probing time = 0.03 sec. (23.25 ticks)
Cover probing fixed 0 vars, tightened 4 bounds.
Tried aggregator 3 times.
MIP Presolve modified 18 coefficients.
Aggregator did 928 substitutions.
Reduced MIP has 1150 rows, 968 columns, and 3264 nonzeros.
Reduced MIP has 721 binaries, 247 generals, 0 SOSs, and 339 indicators.
Presolve time = 0.01 sec. (5.92 ticks)
Probing time = 0.01 sec. (9.26 ticks)
Tried aggregator 1 time.
Reduced MIP has 1150 rows, 968 columns, and 3264 nonzeros.
Reduced MIP has 721 binaries, 247 generals, 0 SOSs, and 339 indicators.
Presolve time = 0.00 sec. (3.03 ticks)
Probing time = 0.00 sec. (3.05 ticks)
Clique table members: 9007.
MIP emphasis: balance optimality and feasibility.
MIP search method: dynamic search.
Parallel mode: deterministic, using up to 4 threads.
Root relaxation solution time = 0.00 sec. (3.88 ticks)

        Nodes                                         Cuts/
   Node  Left     Objective  IInf  Best Integer    Best Bound    ItCnt     Gap

*     0+    0                           12.0000        2.0000            83.33%
      0     0        2.0000   383       12.0000        2.0000      145   83.33%
*     0+    0                            9.0000        2.0000            77.78%
      0     0        2.0000   323        9.0000  Cliques: 387      314   77.78%
*     0+    0                            5.0000        2.0000            60.00%
      0     0        2.0000   325        5.0000  Cliques: 387      410   60.00%

Repeating presolve.
Tried aggregator 3 times.
MIP Presolve eliminated 791 rows and 552 columns.
MIP Presolve modified 10 coefficients.
Aggregator did 5 substitutions.
Reduced MIP has 393 rows, 306 columns, and 1050 nonzeros.
Reduced MIP has 227 binaries, 79 generals, 0 SOSs, and 57 indicators.
Presolve time = 0.00 sec. (3.62 ticks)
Probing time = 0.00 sec. (1.18 ticks)
Tried aggregator 2 times.
Aggregator did 18 substitutions.
Reduced MIP has 375 rows, 288 columns, and 1014 nonzeros.
Reduced MIP has 209 binaries, 79 generals, 0 SOSs, and 57 indicators.
Presolve time = 0.00 sec. (0.90 ticks)
Probing time = 0.00 sec. (1.16 ticks)
Tried aggregator 1 time.
Reduced MIP has 375 rows, 288 columns, and 1014 nonzeros.
Reduced MIP has 209 binaries, 79 generals, 0 SOSs, and 57 indicators.
Presolve time = 0.00 sec. (0.87 ticks)
Represolve time = 0.02 sec. (22.51 ticks)
Probing time = 0.00 sec. (1.16 ticks)
Clique table members: 750.
MIP emphasis: balance optimality and feasibility.
MIP search method: dynamic search.
Parallel mode: deterministic, using up to 4 threads.
Root relaxation solution time = 0.00 sec. (2.91 ticks)

        Nodes                                         Cuts/
   Node  Left     Objective  IInf  Best Integer    Best Bound    ItCnt     Gap

*     0+    0                            5.0000        2.0000            60.00%
      0     0        2.2222   124        5.0000        2.2222      503   55.56%
      0     0        3.0000    95        5.0000      Cuts: 64      572   40.00%
      0     0        3.0000   107        5.0000     Cuts: 111      633   40.00%
      0     0        3.0000   112        5.0000       Cuts: 6      645   40.00%
      0     2        3.0000   112        5.0000        3.0000      645   40.00%
Elapsed time = 0.45 sec. (416.23 ticks, tree = 0.01 MB, solutions = 4)

Clique cuts applied:  8
Implied bound cuts applied:  35
Mixed integer rounding cuts applied:  1
Zero-half cuts applied:  50
Gomory fractional cuts applied:  3

Root node processing (before b&c):
  Real time             =    0.45 sec. (416.13 ticks)
Parallel b&c, 4 threads:
  Real time             =    0.01 sec. (10.64 ticks)
  Sync time (average)   =    0.00 sec.
  Wait time (average)   =    0.00 sec.
                          ------------
Total (root+branch&cut) =    0.46 sec. (426.78 ticks)
   | W
 L | 0 1 2 3 
------------
 0 | . 6 6 5 
 1 | 3 3 . 5 
 2 | 3 3 4 4 
 3 | 1 1 2 2 
 4 | 1 1 2 2 
 5 | . . . . 
 6 | . . . . 
 7 | . . . . 
 8 | . . . . 
 9 | . . . . 
10 | . . . . 
11 | . . . . 

Boxes' corners:      (w,l)
    Box 1 is at 
        top left     (0,3)
        bottom right (1,4)

    Box 2 is at 
        top left     (2,3)
        bottom right (3,4)

    Box 3 is at 
        top left     (0,1)
        bottom right (1,2)

    Box 4 is at 
        top left     (2,2)
        bottom right (3,2)

    Box 5 is at 
        top left     (3,0)
        bottom right (3,1)

    Box 6 is at 
        top left     (1,0)
        bottom right (2,0)

    Roll length used: 5
In 1.44 seconds
